solution status: optimal solution found
objective value:                                    0
$_28_y                                             17 	(obj:0)
$_28_z                                             25 	(obj:0)
$_41__0_y                                          -9 	(obj:0)
$_41__0_z                                          25 	(obj:0)
$_22_y                                             18 	(obj:0)
$_22_z                                             25 	(obj:0)
$_38__0_y                                          19 	(obj:0)
$_38__0_z                                          25 	(obj:0)
$_26_y                                             20 	(obj:0)
$_26_z                                             25 	(obj:0)
$_39__0_y                                          21 	(obj:0)
$_39__0_z                                          25 	(obj:0)
$_42__0_y                                         -25 	(obj:0)
$_42__0_z                                          25 	(obj:0)
$_37__0_y                                          22 	(obj:0)
$_37__0_z                                          25 	(obj:0)
$_29_y                                             23 	(obj:0)
$_29_z                                             25 	(obj:0)
$_36__0_y                                          24 	(obj:0)
$_36__0_z                                          25 	(obj:0)
$_40__0_y                                          25 	(obj:0)
$_40__0_z                                          25 	(obj:0)
